59
120
84	5
83	6
82	4
81	5
80	6
79	9
78	1
77	7
76	5
75	3
74	7
73	3
72	5
71	4
70	2
69	7
68	1
67	7
66	5
65	4
64	8
63	3
62	2
61	5
60	7
59	9
58	10
57	6
56	5
55	2
54	3
53	9
52	8
51	3
49	2
48	6
47	6
46	4
45	7
44	4
43	2
42	5
41	2
40	3
39	7
38	5
37	8
36	5
35	5
34	4
32	7
31	9
30	2
29	4
28	6
27	3
26	5
25	6
24	7
